read_restart rsrc.inp

variable sx atom mass*vx*vx
variable sy atom mass*vy*vy
variable sz atom mass*vx*vz
variable sxz atom mass*vx*vz
variable th equal 25*PI/180
variable gx equal sin(${th})
variable gz equal -cos(${th})
variable om equal 10*2*PI/60
variable ux atom ${om}*z
variable uz atom -${om}*x

comm_modify vel yes
group cw type 1
group mb type 2
neigh_modify exclude group cw cw
velocity cw set v_ux 0 v_uz

pair_style gran/hooke/history 2568000.0 NULL 4952.0 0.0 0.5 0
pair_coeff * *

timestep 1e-6
reset_timestep 0

compute	s all stress/atom NULL pair
compute ch all chunk/atom bin/2d x lower 0.1 z lower 0.1

fix 1 mb nve/sphere
fix 2 cw rigid single torque * off off off force * off off off
fix 3 mb gravity 981 vector ${gx} 0 ${gz}
fix 4 all wall/reflect xlo EDGE xhi EDGE zlo EDGE zhi EDGE
fix av mb ave/chunk 2 50 100 ch mass vx vy vz c_s[1] c_s[2] c_s[3] c_s[5] v_sx v_sy v_sz v_sxz ave running file v.dat overwrite

dump 1 all custom 1000 rc.dump id radius x y z vx vy vz
thermo 1000
thermo_style custom step atoms ke

run_style verlet
run 500000

write_restart rsrc.inp

